<number of tasks>
20


<number of equipment>
5


<cycle time>
1000


<investment costs>
1,16376
2,9083
3,21038
4,19692
5,12396


<task times>
1,217,346,193,-1,-1
2,-1,-1,172,168,315
3,-1,-1,202,168,184
4,321,510,333,-1,-1
5,-1,450,-1,-1,370
6,220,437,206,-1,-1
7,272,414,200,-1,-1
8,305,410,276,-1,-1
9,262,441,198,-1,-1
10,-1,-1,217,236,319
11,-1,-1,195,232,315
12,264,418,211,-1,-1
13,-1,431,-1,-1,360
14,257,307,146,-1,-1
15,209,274,171,-1,-1
16,-1,-1,205,229,341
17,-1,-1,254,264,380
18,-1,303,-1,-1,315
19,304,430,261,-1,-1
20,-1,-1,173,174,306


<precedence relations>
1,4
1,5
2,6
2,7
3,6
3,7
4,9
5,10
6,8
6,11
6,12
7,12
8,13
9,15
10,15
11,14
12,15
13,16
14,17
15,17
15,18
15,19
16,19
17,20


<task types>
1,3
2,2
3,2
4,3
5,1
6,3
7,3
8,3
9,3
10,2
11,2
12,3
13,1
14,3
15,3
16,2
17,2
18,1
19,3
20,2


<line depot>
1,0
2,2
3,3
4,0
5,3


<processing costs>
1,7200
2,14400
3,14400
4,7200
5,14400


<saving costs>
1,1637
2,908
3,2103
4,1969
5,1239


<end>
